NAME : RD99B
TYPE : PDTSP
DIMENSION : 99
EDGE_WEIGHT_TYPE : EUC_2D
NODE_COORD_SECTION
1 140 860
2 880 1.200000
3 550 740
4 500 880
5 200 350
6 700 580
7 150 160
8 140 810
9 630 980
10 670 730
11 310 300
12 450 980
13 350 770
14 400 980
15 270 850
16 670 310
17 880 930
18 130 950
19 970 730
20 660 890
21 400 870
22 120 310
23 810 51
24 16 110
25 13 48
26 650 940
27 790 760
28 910 610
29 510 26
30 32 430
31 780 250
32 530 910
33 650 770
34 190 210
35 560 3
36 410 440
37 930 640
38 940 890
39 340 39
40 160 95
41 110 260
42 83 130
43 43 78
44 550 100
45 610 230
46 890 760
47 560 510
48 14 510
49 400 840
50 890 760
51 85 630
52 490 260
53 650 550
54 240 1.500000
55 880 740
56 510 420
57 940 300
58 870 500
59 140 840
60 230 300
61 200 940
62 300 850
63 370 570
64 110 550
65 800 340
66 320 810
67 3.200000 700
68 180 770
69 980 970
70 15 840
71 920 950
72 900 790
73 670 910
74 430 870
75 870 370
76 900 540
77 620 880
78 670 610
79 89 490
80 150 460
81 430 910
82 52 640
83 830 230
84 430 950
85 320 850
86 280 970
87 840 250
88 970 64
89 120 640
90 230 560
91 810 790
92 940 530
93 710 460
94 860 510
95 350 1.200000
96 310 840
97 750 390
98 610 580
99 480 120
PICKUP_AND_DELIVERY_SECTION
1 0 0 0 0 0 0
2 0 0 0 0 88 0
3 0 0 0 0 0 56
4 0 0 0 0 0 81
5 0 0 0 0 0 41
6 0 0 0 0 0 65
7 0 0 0 0 0 19
8 0 0 0 0 74 0
9 0 0 0 0 0 26
10 0 0 0 0 0 84
11 0 0 0 0 0 79
12 0 0 0 0 47 0
13 0 0 0 0 0 63
14 0 0 0 0 85 0
15 0 0 0 0 86 0
16 0 0 0 0 83 0
17 0 0 0 0 0 91
18 0 0 0 0 0 61
19 0 0 0 0 7 0
20 0 0 0 0 77 0
21 0 0 0 0 96 0
22 0 0 0 0 0 95
23 0 0 0 0 94 0
24 0 0 0 0 80 0
25 0 0 0 0 0 43
26 0 0 0 0 9 0
27 0 0 0 0 92 0
28 0 0 0 0 0 46
29 0 0 0 0 40 0
30 0 0 0 0 0 48
31 0 0 0 0 0 57
32 0 0 0 0 0 54
33 0 0 0 0 70 0
34 0 0 0 0 82 0
35 0 0 0 0 45 0
36 0 0 0 0 52 0
37 0 0 0 0 0 87
38 0 0 0 0 73 0
39 0 0 0 0 44 0
40 0 0 0 0 0 29
41 0 0 0 0 5 0
42 0 0 0 0 53 0
43 0 0 0 0 25 0
44 0 0 0 0 0 39
45 0 0 0 0 0 35
46 0 0 0 0 28 0
47 0 0 0 0 0 12
48 0 0 0 0 30 0
49 0 0 0 0 71 0
50 0 0 0 0 72 0
51 0 0 0 0 60 0
52 0 0 0 0 0 36
53 0 0 0 0 0 42
54 0 0 0 0 32 0
55 0 0 0 0 0 69
56 0 0 0 0 3 0
57 0 0 0 0 31 0
58 0 0 0 0 0 98
59 0 0 0 0 0 68
60 0 0 0 0 0 51
61 0 0 0 0 18 0
62 0 0 0 0 66 0
63 0 0 0 0 13 0
64 0 0 0 0 67 0
65 0 0 0 0 6 0
66 0 0 0 0 0 62
67 0 0 0 0 0 64
68 0 0 0 0 59 0
69 0 0 0 0 55 0
70 0 0 0 0 0 33
71 0 0 0 0 0 49
72 0 0 0 0 0 50
73 0 0 0 0 0 38
74 0 0 0 0 0 8
75 0 0 0 0 0 76
76 0 0 0 0 75 0
77 0 0 0 0 0 20
78 0 0 0 0 93 0
79 0 0 0 0 11 0
80 0 0 0 0 0 24
81 0 0 0 0 4 0
82 0 0 0 0 0 34
83 0 0 0 0 0 16
84 0 0 0 0 10 0
85 0 0 0 0 0 14
86 0 0 0 0 0 15
87 0 0 0 0 37 0
88 0 0 0 0 0 2
89 0 0 0 0 90 0
90 0 0 0 0 0 89
91 0 0 0 0 17 0
92 0 0 0 0 0 27
93 0 0 0 0 0 78
94 0 0 0 0 0 23
95 0 0 0 0 22 0
96 0 0 0 0 0 21
97 0 0 0 0 99 0
98 0 0 0 0 58 0
99 0 0 0 0 0 97
DEPOT_SECTION
1 
-1
EOF
